(set-logic QF_S)
(declare-fun T_1c () Bool)
(declare-fun T_1e () Bool)
(declare-fun T_1f () Bool)
(declare-fun T_SELECT_6 () Bool)
(declare-fun T_SELECT_7 () Bool)
(declare-fun I0_34 () Int)
(declare-fun I0_43 () Int)
(declare-fun I1_43 () Int)
(declare-fun I2_43 () Int)
(declare-fun PCTEMP_LHS_7 () Int)
(declare-fun PCTEMP_LHS_8 () Int)
(declare-fun T_20 () Int)
(declare-fun T_21 () Int)
(declare-fun T0_34 () String)
(declare-fun T1_34 () String)
(declare-fun T2_34 () String)
(declare-fun T3_34 () String)
(declare-fun T4_34 () String)
(declare-fun T5_34 () String)
(declare-fun var_0xINPUT_42103 () String)
(assert (= var_0xINPUT_42103 (str.++ T0_34 T1_34)))
(assert (= T1_34 (str.++ T2_34 T3_34)))
(assert (= T2_34 (str.++ T4_34 T5_34)))
(assert (not (str.in.re T4_34 (str.to.re "__utmb=218069774"))))
(assert (= T5_34 "__utmb=218069774"))
(assert T_1c)
(assert (= T_1c (< (- 1) PCTEMP_LHS_7)))
(assert (= T_SELECT_7 (not (= PCTEMP_LHS_8 (- 1)))))
(assert T_1f)
(assert (= T_1f (not T_1e)))
(assert (= T_1e (< PCTEMP_LHS_8 0)))
(assert (>= PCTEMP_LHS_8 T_21))
(assert (= I2_43 I1_43))
(assert (<= PCTEMP_LHS_8 I1_43))
(assert (= I0_43 (- PCTEMP_LHS_8 T_21)))
(assert (>= T_21 0))
(assert (= T_21 (+ T_20 1)))
(assert (= T_20 (+ PCTEMP_LHS_7 6)))
(assert (= PCTEMP_LHS_7 (+ I0_34 0)))
(assert (= T_SELECT_6 (not (= PCTEMP_LHS_7 (- 1)))))
(assert (= 0 (str.len T0_34))) ; len 0
(assert (= I0_34 (str.len T4_34))) ; len 1
(assert T_SELECT_6)
(check-sat)
